min_CS_SC =  1 ;
min_CS_SS =  0 ;
min_CS_SDS =  0 ;
min_CS_SPF =  0 ;
min_CS_DI =  0 ;
min_CS_PT =  0 ;
min_CS_PDT =  0 ;
min_PE =  0 ;
min_PE2MHB =  0 ;
min_PE2MT =  0 ;
min_CS_PM =  0 ;
min_DCP_S =  0 ;
min_DEP_S =  0 ;
min_DCP_H =  0 ;
min_DEP_H = 0  ;
min_CAS_DAC =  0 ;
min_CAS_DC =  0 ;
min_CAS_DE = 0  ;
min_CAS_DMA =  0 ;
min_CAS_DRN = 0  ;
min_CAS_DR =  0 ;
min_SE2OC =  0 ;
min_SE =  0 ;
min_SX2OC = 0  ;
min_SX =  0 ;
min_CAS_MH =  0 ;
min_CAS_MP = 0  ;
min_MC_O = 0  ;
min_MC_I =  0 ;
min_PT2MHB_PDT2MHB =  0 ;
min_OC = 0  ;

